5yOhtAoR
1.0
        5.6649999619         0.0000000000         0.0000000000
       -2.8324999809         4.9060338794         0.0000000000
        0.0000000000         0.0000000000         4.5310001373
   Mn   Sn
    6    2
Direct
     0.838800013         0.677600026         0.250000000  1.5 2.5981 0 
     0.161199987         0.838800013         0.750000000  -3   0     0 
     0.838800013         0.161199987         0.250000000  -3   0     0 
     0.161199987         0.322399974         0.750000000  1.5 2.5981 0 
     0.322400004         0.161200002         0.250000000  1.5 -2.5981 0
     0.677600026         0.838800013         0.750000000  1.5 -2.5981 0
     0.333332986         0.666666985         0.250000000  
     0.666666985         0.333333999         0.750000000